gen	cost
1	20914
2	20762
3	20536
4	20233
5	20026
6	19955
7	19771
8	19655
9	19612
10	19541
11	19519
12	19486
13	19480
14	19468
15	19444
16	19424
17	19369
18	19369
19	19344
20	19339
21	19339
22	19323
23	19323
24	19314
25	19305
26	19305
27	19305
28	19305
29	19305
30	19276
31	19276
32	19276
33	19276
34	19276
35	19276
36	19276
37	19276
38	19276
39	19276
40	19275
41	19275
42	19275
43	19275
44	19275
45	19275
46	19275
47	19275
48	19275
49	19275
50	19275

